# Solution for model F-JSSP-SDST
# Objective value = 1620
B0(15) 0
B1(15) 1
B2(19) 0
B3(16) 0
B4(15) 0
B5(15) 1
B6(15) 1
B7(14) 0
B8(8) 0
B9(16) 0
B10(16) 1
B11(16) 1
B12(15) 0
B13(17) 0
B14(14) 0
B15(10) 1
B16(8) 0
B17(15) 0
B18(15) 1
B19(10) 1
B20(18) 0
B21(16) 0
B22(15) 0
B23(14) 1
B24(10) 0
B25(15) 0
B26(15) 1
B27(17) 0
B28(15) 1
B29(16) 1
B30(10) 0
B31(16) 0
B32(16) 0
B33(16) 1
B34(17) 0
B35(18) 1
B36(14) 0
B37(13) 0
B38(10) 1
B39(0) 0
B40(0) 0
B41(0) 0
B42(4) 0
B43(4) 0
B44(0) 0
B45(4) 1
B46(2) 0
B47(0) 0
B48(4) 1
B49(2) 0
B50(0) 0
B51(6) 1
B52(2) 0
B53(0) 0
B54(0) 0
B55(0) 0
B56(0) 0
B57(2) 1
B58(4) 0
B59(0) 0
B60(4) 0
B61(2) 0
B62(2) 1
B63(4) 1
B64(0) 0
B65(2) 0
B66(4) 1
B67(2) 0
B68(0) 0
B69(0) 0
B70(0) 0
B71(0) 0
B72(0) 0
B73(2) 1
B74(4) 0
B75(0) 0
B76(4) 0
B77(4) 0
B78(0) 0
B79(2) 1
B80(2) 1
B81(0) 0
B82(4) 1
B83(2) 0
B84(0) 0
B85(0) 0
B86(0) 0
B87(0) 0
B88(0) 0
B89(0) 0
B90(2) 0
B91(2) 0
B92(0) 0
B93(2) 0
B94(2) 0
B95(0) 0
B96(4) 0
B97(2) 0
B98(0) 0
B99(0) 0
B100(0) 0
B101(0) 0
B102(0) 0
B103(0) 0
B104(0) 0
B105(2) 0
B106(4) 0
B107(2) 1
B108(2) 1
B109(2) 0
B110(2) 0
B111(4) 0
B112(4) 0
B113(0) 0
B114(0) 0
B115(0) 0
B116(0) 0
B117(0) 0
B118(0) 0
B119(0) 0
B120(0) 0
B121(2) 0
B122(4) 0
B123(0) 0
B124(2) 1
B125(2) 1
B126(0) 0
B127(2) 0
B128(4) 1
B129(0) 0
B130(0) 0
B131(0) 0
B132(0) 0
B133(0) 0
B134(0) 0
B135(0) 0
B136(0) 0
B137(0) 0
B138(4) 1
B139(0) 0
B140(0) 0
B141(4) 1
B142(0) 0
B143(0) 0
B144(0) 0
B145(0) 0
B146(0) 0
B147(0) 0
B148(0) 0
B149(0) 0
B150(0) 0
B151(0) 0
B152(0) 0
B153(0) 0
B154(2) 0
B155(2) 0
B156(2) 0
B157(4) 1
B158(0) 0
B159(0) 0
B160(0) 0
B161(0) 0
B162(0) 0
B163(0) 0
B164(0) 0
B165(0) 0
B166(0) 0
B167(0) 0
B168(0) 0
B169(2) 1
B170(4) 1
B171(0) 0
B172(4) 1
B173(4) 0
B174(0) 0
B175(0) 0
B176(0) 0
B177(0) 0
B178(0) 0
B179(0) 0
B180(0) 0
B181(0) 0
B182(0) 0
B183(0) 0
B184(0) 0
B185(0) 0
B186(4) 0
B187(0) 0
B188(0) 0
B189(0) 0
B190(0) 0
B191(0) 0
B192(0) 0
B193(0) 0
B194(0) 0
B195(0) 0
B196(0) 0
B197(0) 0
B198(0) 0
B199(0) 0
B200(0) 0
B201(2) 0
B202(4) 0
B203(2) 0
B204(0) 0
B205(0) 0
B206(0) 0
B207(0) 0
B208(0) 0
B209(0) 0
B210(0) 0
B211(0) 0
B212(0) 0
B213(0) 0
B214(0) 0
B215(0) 0
B216(0) 0
B217(2) 1
B218(2) 1
B219(0) 0
B220(0) 0
B221(0) 0
B222(0) 0
B223(0) 0
B224(0) 0
B225(0) 0
B226(0) 0
B227(0) 0
B228(0) 0
B229(0) 0
B230(0) 0
B231(0) 0
B232(0) 0
B233(0) 0
B234(0) 0
B235(0) 0
B236(0) 0
B237(0) 0
B238(0) 0
B239(0) 0
B240(0) 0
B241(0) 0
B242(0) 0
B243(0) 0
B244(0) 0
B245(0) 0
B246(0) 0
B247(0) 0
B248(0) 0
B249(0) 0
B250(0) 0
B251(0) 0
B252(0) 0
B253(0) 0
B254(0) 0
B255(0) 0
B256(0) 0
B257(0) 0
B258(0) 0
B259(0) 0
B260(0) 0
B261(0) 0
B262(0) 0
B263(0) 0
I264(16) 0
I265(16) 148
I266(20) 0
I267(20) 0
I268(18) 0
I269(18) 271
I270(18) 398
I271(18) 0
I272(12) 0
I273(17) 0
I274(17) 0
I275(18) 163
I276(18) 0
I277(20) 0
I278(17) 0
I279(13) 290
I280(11) 0
I281(16) 0
I282(16) 76
I283(12) 138
I284(20) 0
I285(18) 0
I286(18) 0
I287(18) 283
I288(14) 0
I289(16) 0
I290(16) 0
I291(19) 0
I292(17) 65
I293(19) 238
I294(13) 0
I295(17) 0
I296(17) 0
I297(17) 0
I298(19) 0
I299(21) 128
I300(17) 0
I301(16) 0
I302(14) 193
I303(1) 1620
B304(2) 0
B305(2) 1
B306(2) 0
B307(2) 0
B308(2) 0
B309(2) 1
B310(4) 1
B311(4) 0
B312(4) 0
B313(2) 0
B314(2) 1
B315(2) 1
B316(2) 0
B317(2) 0
B318(4) 0
B319(4) 1
B320(4) 0
B321(2) 0
B322(2) 1
B323(2) 1
B324(2) 0
B325(2) 0
B326(4) 0
B327(4) 1
B328(4) 0
B329(2) 0
B330(2) 1
B331(2) 0
B332(2) 1
B333(4) 1
B334(4) 0
B335(2) 0
B336(2) 0
B337(2) 1
B338(2) 0
B339(2) 1
B340(2) 0
B341(4) 0
B342(4) 1
